8
Lattice="5.2318115234375 -0.38135457038879395 -0.0020555269438773394 -0.12783406674861908 7.312736511230469 0.10441840440034866 0.10939337313175201 0.10071086138486862 6.1197662353515625" Properties=species:S:1:pos:R:3 ns_energy=29.40354347229004 iter=0 pbc="T T T"
Ar       5.11962843       0.57518023       0.64617383
Ar       1.38218021       0.79323405       0.56307650
Ar       3.09359097       4.59630346       2.51962233
Ar       1.62534630       0.32374668       4.79460955
Ar       2.98524261       1.81940782       3.46281767
Ar       1.65560114       0.70370483       5.96103048
Ar       0.66494215       2.62247038       3.83446026
Ar       2.20638156       4.68731546       2.58041096
8
Lattice="6.157031059265137 0.1292494684457779 0.059979259967803955 0.20422035455703735 4.159895420074463 -0.09790093451738358 -0.17553438246250153 -0.05346817895770073 8.486265182495117" Properties=species:S:1:pos:R:3 ns_energy=21.41192626953125 iter=50 pbc="T T T"
Ar       5.67055359       2.98255481       4.00909413
Ar       0.21455763       1.69229131       3.83837325
Ar       0.86028957       0.74517028       3.20508999
Ar       3.15379852       0.87117052       4.70456607
Ar       0.34312284       4.07008982       6.29736764
Ar       2.12963772       1.82295036       2.18917584
Ar       3.13366312       3.87543440       3.89007265
Ar       3.86251865       1.33209734       5.38250780
8
Lattice="5.898321628570557 0.06057022139430046 -0.09948711097240448 -0.005744641646742821 6.299316883087158 -0.05863898620009422 0.09284979850053787 0.04138507694005966 6.093872547149658" Properties=species:S:1:pos:R:3 ns_energy=20.39666748046875 iter=100 pbc="T T T"
Ar       2.89230627       2.82385778       4.74118322
Ar       1.06352854       4.04748632       0.86370276
Ar       2.25655382       2.13040099       1.99764395
Ar       3.95723701       1.67323565       4.72882557
Ar       3.20923281       2.36081934       0.51509869
Ar       2.03573065       6.14857879       5.75809580
Ar       0.41447911       0.90699911       0.67632532
Ar       2.90956020       2.85030866       2.44420195
8
Lattice="7.482556343078613 0.2630811929702759 -0.03533314913511276 -0.19493933022022247 6.529300689697266 0.0012820512056350708 0.10607746988534927 0.11947105824947357 4.585938453674316" Properties=species:S:1:pos:R:3 ns_energy=19.467243194580078 iter=150 pbc="T T T"
Ar       5.82512999       3.83798027       1.49806619
Ar       4.76084518       3.87164402       2.31347227
Ar       6.70127317       1.96567442       3.29514980
Ar       4.76954421       6.28858133       3.92396314
Ar       6.77239983       2.87690356       0.69213963
Ar       6.16102266       1.66281269       3.54591791
Ar       6.41329336       0.73324138       4.12047195
Ar       7.43936348       2.86961460       1.91728830
8
Lattice="5.2318115234375 -0.38135457038879395 -0.0020555269438773394 -0.12783406674861908 7.312736511230469 0.10441840440034866 0.10939337313175201 0.10071086138486862 6.1197662353515625" Properties=species:S:1:pos:R:3 ns_energy=29.40354347229004 iter=0 pbc="T T T"
Ar       5.11962843       0.57518023       0.64617383
Ar       1.38218021       0.79323405       0.56307650
Ar       3.09359097       4.59630346       2.51962233
Ar       1.62534630       0.32374668       4.79460955
Ar       2.98524261       1.81940782       3.46281767
Ar       1.65560114       0.70370483       5.96103048
Ar       0.66494215       2.62247038       3.83446026
Ar       2.20638156       4.68731546       2.58041096
8
Lattice="6.157031059265137 0.1292494684457779 0.059979259967803955 0.20422035455703735 4.159895420074463 -0.09790093451738358 -0.17553438246250153 -0.05346817895770073 8.486265182495117" Properties=species:S:1:pos:R:3 ns_energy=21.41192626953125 iter=50 pbc="T T T"
Ar       5.67055359       2.98255481       4.00909413
Ar       0.21455763       1.69229131       3.83837325
Ar       0.86028957       0.74517028       3.20508999
Ar       3.15379852       0.87117052       4.70456607
Ar       0.34312284       4.07008982       6.29736764
Ar       2.12963772       1.82295036       2.18917584
Ar       3.13366312       3.87543440       3.89007265
Ar       3.86251865       1.33209734       5.38250780
8
Lattice="5.898321628570557 0.06057022139430046 -0.09948711097240448 -0.005744641646742821 6.299316883087158 -0.05863898620009422 0.09284979850053787 0.04138507694005966 6.093872547149658" Properties=species:S:1:pos:R:3 ns_energy=20.39666748046875 iter=100 pbc="T T T"
Ar       2.89230627       2.82385778       4.74118322
Ar       1.06352854       4.04748632       0.86370276
Ar       2.25655382       2.13040099       1.99764395
Ar       3.95723701       1.67323565       4.72882557
Ar       3.20923281       2.36081934       0.51509869
Ar       2.03573065       6.14857879       5.75809580
Ar       0.41447911       0.90699911       0.67632532
Ar       2.90956020       2.85030866       2.44420195
8
Lattice="7.482556343078613 0.2630811929702759 -0.03533314913511276 -0.19493933022022247 6.529300689697266 0.0012820512056350708 0.10607746988534927 0.11947105824947357 4.585938453674316" Properties=species:S:1:pos:R:3 ns_energy=19.467243194580078 iter=150 pbc="T T T"
Ar       5.82512999       3.83798027       1.49806619
Ar       4.76084518       3.87164402       2.31347227
Ar       6.70127317       1.96567442       3.29514980
Ar       4.76954421       6.28858133       3.92396314
Ar       6.77239983       2.87690356       0.69213963
Ar       6.16102266       1.66281269       3.54591791
Ar       6.41329336       0.73324138       4.12047195
Ar       7.43936348       2.86961460       1.91728830
